100
36 0
22 0
5 0
0 3
23 1
38 4
21 3
16 4
40 2
19 0
26 3
29 4
29 0
6 3
28 4
15 0
25 4
39 4
35 4
10 3
31 0
41 0
44 3
5 4
10 2
27 3
15 2
2 3
27 0
21 4
34 0
18 0
20 4
28 0
44 1
11 4
43 0
36 3
24 1
19 4
33 0
8 1
42 1
36 4
32 0
43 1
17 4
9 4
44 4
17 1
4 1
21 0
30 3
27 4
40 4
14 3
16 0
30 0
25 2
6 2
7 3
7 4
30 4
35 3
40 1
24 0
6 4
23 0
3 3
26 0
8 3
8 4
37 0
40 3
28 1
25 0
12 4
4 0
36 1
23 4
30 1
6 0
39 0
15 1
12 2
13 1
32 1
41 4
3 2
41 3
1 4
1 0
31 4
12 0
22 3
32 3
13 4
9 0
37 3
19 1

